154
100
48
28
92
26
75
32
51
1
21
36
1
38
70
31
25
11
10
11
14
99
50
13
49
17
72
6
31
31
41
48
38
2
25
52
15
61
36
47
42
38
30
26
52
19
71
58
18
1
89
21
44
44
36
71
30
63
26
77
4
55
14
58
74
95
56
42
38
29
56
1
98
90
22
62
40
4
1
41
50
63
59
21
24
13
11
32
39
33
26
18
37
66
60
13
19
4
59
54
72
38
28
59
45
67
28
24
2
29
5
66
7
34
41
20
64
42
62
16
64
16
29
22
74
34
99
6
59
67
81
4
8
16
24
38
44
79
76
19
33
13
50
45
23
26
49
23
43
33
39
22
21
45
69
67
